c Created with the Wolfram Language : www.wolfram.com
c 
p edge 90 350
e 1 6
e 7 8
e 3 9
e 5 10
e 3 11
e 4 12
e 5 12
e 6 12
e 6 14
e 10 14
e 5 16
e 8 17
e 10 18
e 6 20
e 10 21
e 2 23
e 6 23
e 15 23
e 2 24
e 14 24
e 20 24
e 21 25
e 22 25
e 7 26
e 15 26
e 19 26
e 23 26
e 24 26
e 9 27
e 9 28
e 11 28
e 16 28
e 25 28
e 1 29
e 4 29
e 6 29
e 11 29
e 20 29
e 22 29
e 6 30
e 8 30
e 7 31
e 21 31
e 30 31
e 22 32
e 27 32
e 4 33
e 8 33
e 10 33
e 12 33
e 11 34
e 12 34
e 17 34
e 23 34
e 26 34
e 27 34
e 23 35
e 28 35
e 31 35
e 33 35
e 5 36
e 7 36
e 9 36
e 12 36
e 14 36
e 30 36
e 11 37
e 16 37
e 20 37
e 26 37
e 28 37
e 34 37
e 5 38
e 9 38
e 14 38
e 17 38
e 30 38
e 4 39
e 20 39
e 25 39
e 29 39
e 35 39
e 2 40
e 3 40
e 36 40
e 37 40
e 19 41
e 3 42
e 17 42
e 21 42
e 22 42
e 27 42
e 13 43
e 20 43
e 22 43
e 41 43
e 5 44
e 23 44
e 30 44
e 32 44
e 39 44
e 43 44
e 18 45
e 33 45
e 38 45
e 1 46
e 28 46
e 29 46
e 33 46
e 37 46
e 40 46
e 41 46
e 45 46
e 12 47
e 26 47
e 29 47
e 34 47
e 43 47
e 44 47
e 3 48
e 7 48
e 19 48
e 26 48
e 36 48
e 38 48
e 45 48
e 11 49
e 36 49
e 37 49
e 40 49
e 13 50
e 14 50
e 18 50
e 25 50
e 42 50
e 44 50
e 2 51
e 28 51
e 30 51
e 35 51
e 2 52
e 35 52
e 14 53
e 45 53
e 20 54
e 22 54
e 30 54
e 32 54
e 37 54
e 44 54
e 4 55
e 23 55
e 50 55
e 42 56
e 14 57
e 26 57
e 30 57
e 33 57
e 7 58
e 10 58
e 14 58
e 39 58
e 40 58
e 56 58
e 3 59
e 31 59
e 38 59
e 49 59
e 55 59
e 20 60
e 37 60
e 46 60
e 54 60
e 56 60
e 58 60
e 4 61
e 22 61
e 25 61
e 29 61
e 30 61
e 40 61
e 57 61
e 34 62
e 49 62
e 57 62
e 14 63
e 25 63
e 29 63
e 39 63
e 3 64
e 9 64
e 15 64
e 29 64
e 33 64
e 42 64
e 53 64
e 21 65
e 22 65
e 25 65
e 32 65
e 55 65
e 59 65
e 60 65
e 22 66
e 36 66
e 44 66
e 47 66
e 52 66
e 4 67
e 24 67
e 39 67
e 52 67
e 53 67
e 66 67
e 3 68
e 21 68
e 31 68
e 1 69
e 9 69
e 35 70
e 36 70
e 37 70
e 38 70
e 40 70
e 43 70
e 49 70
e 4 71
e 56 71
e 59 71
e 3 72
e 10 72
e 26 72
e 35 72
e 41 72
e 51 72
e 52 72
e 65 72
e 7 73
e 15 73
e 25 73
e 31 73
e 55 73
e 58 73
e 1 74
e 11 74
e 40 74
e 55 74
e 20 75
e 40 75
e 41 75
e 58 75
e 69 75
e 71 75
e 8 76
e 28 76
e 35 76
e 52 76
e 67 76
e 28 77
e 56 77
e 58 77
e 65 77
e 71 77
e 5 78
e 8 78
e 30 78
e 34 78
e 46 78
e 48 78
e 54 78
e 63 78
e 77 78
e 7 79
e 8 79
e 39 79
e 53 79
e 65 79
e 67 79
e 74 79
e 11 80
e 12 80
e 15 80
e 36 80
e 48 80
e 63 80
e 66 80
e 69 80
e 12 81
e 27 81
e 41 81
e 66 81
e 78 81
e 12 82
e 80 82
e 14 83
e 18 83
e 61 83
e 62 83
e 71 83
e 76 83
e 79 83
e 2 84
e 14 84
e 38 84
e 49 84
e 59 84
e 68 84
e 69 84
e 71 84
e 6 85
e 7 85
e 9 85
e 45 85
e 60 85
e 71 85
e 73 85
e 1 86
e 9 86
e 28 86
e 44 86
e 46 86
e 47 86
e 49 86
e 59 86
e 76 86
e 77 86
e 25 87
e 35 87
e 39 87
e 41 87
e 52 87
e 66 87
e 3 88
e 38 88
e 44 88
e 73 88
e 85 88
e 13 89
e 23 89
e 25 89
e 52 89
e 55 89
e 66 89
e 72 89
e 86 89
e 34 90
e 66 90
e 68 90
e 79 90
e 81 90
